NAME : 35ftv170.1205.tour
COMMENT : Length = 1205
COMMENT : Found by GLKH [Keld Helsgaun] Tue Nov  5 16:51:47 2013
TYPE : TOUR
DIMENSION : 35
TOUR_SECTION
1
112
116
114
126
119
104
164
100
91
88
71
65
55
54
48
40
39
77
13
14
18
30
23
25
16
26
149
138
147
146
141
142
7
8
-1
EOF
